solution status: time limit reached
objective value:                                  137
shell_j_thing.thing.chamber[0].thingy.r1c                    1 	(obj:0)
shell_j_thing.thing.chamber[2].thingy.v8                    1 	(obj:0)
shell_j_thing.loop_exit_ctrl_hole                    1 	(obj:0)
shell_j_$_26__7                                     1 	(obj:0)
shell_j_thing.thing.chamber[2].thingy.v2                    1 	(obj:0)
shell_j_$_84__7                                     1 	(obj:0)
shell_j_$_22__7                                     1 	(obj:0)
shell_j_$_7__7                                      1 	(obj:0)
shell_j_$_93__7                                     1 	(obj:0)
shell_j_thing.vertical_flush_hole                    1 	(obj:0)
shell_j_$_143__7                                    1 	(obj:0)
shell_j_thing.thing.chamber[2].thingy.r4c                    1 	(obj:0)
shell_j_thing.thing.chamber[1].thingy.r4c                    1 	(obj:0)
shell_j_thing.thing.chamber[0].thingy.p0                    1 	(obj:0)
shell_j_$_4__7                                      1 	(obj:0)
shell_j_thing.thing.chamber[2].thingy.v4                    1 	(obj:0)
shell_j_thing.horiz_flush_hole                      1 	(obj:0)
shell_j_$_86__7                                     1 	(obj:0)
shell_j_thing.thing.chamber[1].thingy.v10                    1 	(obj:0)
shell_j_$_122__7                                    1 	(obj:0)
shell_j_$_104__7                                    1 	(obj:0)
shell_j_$_101__7                                    1 	(obj:0)
shell_j_$_100__7                                    1 	(obj:0)
shell_j_thing.thing.chamber[1].thingy.r2c                    1 	(obj:0)
shell_j_$_2__7                                      1 	(obj:0)
shell_j_thing.bead_trap_flush_hole                    1 	(obj:0)
shell_j_$_98__7                                     1 	(obj:0)
shell_j_thing.bead_flush_hole                       1 	(obj:0)
shell_j_thing.thing.chamber[0].thingy.p2                    1 	(obj:0)
shell_j_thing.thing.chamber[1].thingy.v2                    1 	(obj:0)
shell_j_thing.thing.chamber[2].thingy.v3                    1 	(obj:0)
shell_j_$_102__7                                    1 	(obj:0)
shell_j_$_148__7                                    1 	(obj:0)
shell_j_$_88__7                                     1 	(obj:0)
shell_j_$_147__7                                    1 	(obj:0)
shell_j_$_8__7                                      1 	(obj:0)
shell_j_$_19__7                                     1 	(obj:0)
shell_j_$_9__7                                      1 	(obj:0)
shell_j_$_125__7                                    1 	(obj:0)
shell_j_$_16__7                                     1 	(obj:0)
shell_i_thing.thing.chamber[2].thingy.r2c                    1 	(obj:0)
shell_j_thing.thing.chamber[1].thingy.r3c                    1 	(obj:0)
shell_j_$_18__7                                     1 	(obj:0)
shell_j_$_96__7                                     1 	(obj:0)
shell_i_$_17__7                                     1 	(obj:0)
shell_j_thing.thing.chamber[2].thingy.r3c                    1 	(obj:0)
shell_j_$_12__7                                     1 	(obj:0)
shell_j_$_123__7                                    1 	(obj:0)
shell_j_$_3__7                                      1 	(obj:0)
shell_j_thing.bead_trap_ctrl_hole                    1 	(obj:0)
shell_j_$_120__7                                    1 	(obj:0)
shell_j_$_5__7                                      1 	(obj:0)
shell_j_thing.vertical_ctrl_hole                    1 	(obj:0)
shell_j_thing.thing.chamber[1].thingy.v3                    1 	(obj:0)
shell_j_thing.thing.chamber[2].thingy.v6                    1 	(obj:0)
$_100__7_x                                          1 	(obj:0)
$_100__7_y                                         -9 	(obj:0)
$_100__7_z                                         17 	(obj:0)
$_26__7_z                                          16 	(obj:0)
thing.vertical_flush_hole_x                         3 	(obj:0)
thing.thing.chamber[1].thingy.r2c_x                    1 	(obj:0)
thing.thing.chamber[1].thingy.r2c_y                   -9 	(obj:0)
thing.thing.chamber[1].thingy.r2c_z                   19 	(obj:0)
thing.vertical_flush_hole_y                        -9 	(obj:0)
thing.vertical_flush_hole_z                        19 	(obj:0)
$_2__7_x                                            1 	(obj:0)
$_2__7_y                                           -9 	(obj:0)
$_2__7_z                                           25 	(obj:0)
thing.thing.chamber[2].thingy.v8_y                   -9 	(obj:0)
thing.thing.chamber[2].thingy.v8_z                   21 	(obj:0)
thing.bead_trap_flush_hole_x                       -1 	(obj:0)
thing.bead_trap_flush_hole_y                       -9 	(obj:0)
thing.bead_trap_flush_hole_z                       18 	(obj:0)
$_143__7_x                                          1 	(obj:0)
$_143__7_y                                         -9 	(obj:0)
$_98__7_x                                          -4 	(obj:0)
$_98__7_y                                          -9 	(obj:0)
$_98__7_z                                          18 	(obj:0)
$_143__7_z                                         20 	(obj:0)
thing.thing.chamber[2].thingy.v2_x                    5 	(obj:0)
thing.bead_flush_hole_x                            -2 	(obj:0)
thing.bead_flush_hole_y                            -9 	(obj:0)
thing.bead_flush_hole_z                            22 	(obj:0)
thing.thing.chamber[2].thingy.v2_y                   -9 	(obj:0)
thing.thing.chamber[0].thingy.p2_x                   -1 	(obj:0)
thing.thing.chamber[0].thingy.p2_y                   -9 	(obj:0)
thing.thing.chamber[0].thingy.p2_z                   21 	(obj:0)
thing.thing.chamber[2].thingy.r4c_y                   -9 	(obj:0)
thing.thing.chamber[2].thingy.r4c_z                   20 	(obj:0)
thing.thing.chamber[1].thingy.v2_x                    3 	(obj:0)
thing.thing.chamber[1].thingy.v2_y                   -9 	(obj:0)
thing.thing.chamber[1].thingy.v2_z                   20 	(obj:0)
thing.thing.chamber[2].thingy.v2_z                   19 	(obj:0)
thing.thing.chamber[0].thingy.r1c_z                   20 	(obj:0)
thing.thing.chamber[2].thingy.v3_x                    6 	(obj:0)
thing.thing.chamber[2].thingy.v3_y                   -9 	(obj:0)
thing.thing.chamber[2].thingy.v3_z                   19 	(obj:0)
thing.thing.chamber[1].thingy.r4c_y                   -9 	(obj:0)
$_102__7_x                                          4 	(obj:0)
$_102__7_y                                         -9 	(obj:0)
$_102__7_z                                         20 	(obj:0)
thing.thing.chamber[1].thingy.r4c_z                   22 	(obj:0)
thing.thing.chamber[0].thingy.r1c_x                    2 	(obj:0)
$_148__7_x                                          2 	(obj:0)
$_148__7_y                                         -9 	(obj:0)
$_148__7_z                                         16 	(obj:0)
$_84__7_x                                           6 	(obj:0)
thing.thing.chamber[0].thingy.p0_x                    3 	(obj:0)
$_88__7_y                                          -9 	(obj:0)
$_88__7_z                                          23 	(obj:0)
thing.thing.chamber[0].thingy.p0_y                   -9 	(obj:0)
thing.thing.chamber[0].thingy.p0_z                   21 	(obj:0)
$_147__7_x                                          1 	(obj:0)
$_147__7_y                                         -9 	(obj:0)
$_147__7_z                                         23 	(obj:0)
$_84__7_y                                          -9 	(obj:0)
$_84__7_z                                          23 	(obj:0)
$_8__7_x                                            5 	(obj:0)
$_8__7_y                                           -9 	(obj:0)
$_8__7_z                                           15 	(obj:0)
$_4__7_x                                            9 	(obj:0)
$_4__7_y                                           -9 	(obj:0)
$_19__7_y                                          -9 	(obj:0)
$_19__7_z                                          17 	(obj:0)
$_4__7_z                                           24 	(obj:0)
thing.loop_exit_ctrl_hole_x                         1 	(obj:0)
$_9__7_x                                           -1 	(obj:0)
$_9__7_y                                           -9 	(obj:0)
$_9__7_z                                           23 	(obj:0)
thing.loop_exit_ctrl_hole_y                        -9 	(obj:0)
thing.thing.chamber[2].thingy.v4_x                    5 	(obj:0)
$_125__7_x                                          4 	(obj:0)
$_125__7_y                                         -9 	(obj:0)
$_125__7_z                                         21 	(obj:0)
thing.thing.chamber[2].thingy.v4_y                   -9 	(obj:0)
thing.thing.chamber[2].thingy.v4_z                   22 	(obj:0)
$_16__7_x                                           9 	(obj:0)
$_16__7_y                                          -9 	(obj:0)
$_16__7_z                                          23 	(obj:0)
$_22__7_x                                          -4 	(obj:0)
$_22__7_y                                          -9 	(obj:0)
thing.thing.chamber[2].thingy.r2c_x                    9 	(obj:0)
thing.thing.chamber[2].thingy.r2c_y                   -9 	(obj:0)
thing.thing.chamber[2].thingy.r2c_z                   19 	(obj:0)
thing.horiz_flush_hole_x                            5 	(obj:0)
thing.horiz_flush_hole_y                           -9 	(obj:0)
thing.thing.chamber[1].thingy.r3c_x                    2 	(obj:0)
thing.thing.chamber[1].thingy.r3c_y                   -9 	(obj:0)
thing.thing.chamber[1].thingy.r3c_z                   19 	(obj:0)
thing.horiz_flush_hole_z                           20 	(obj:0)
$_22__7_z                                          16 	(obj:0)
$_18__7_x                                           8 	(obj:0)
$_18__7_y                                          -9 	(obj:0)
$_18__7_z                                          17 	(obj:0)
thing.loop_exit_ctrl_hole_z                        24 	(obj:0)
$_86__7_x                                           2 	(obj:0)
$_96__7_x                                          -1 	(obj:0)
$_96__7_y                                          -9 	(obj:0)
$_96__7_z                                          22 	(obj:0)
$_86__7_y                                          -9 	(obj:0)
$_86__7_z                                          21 	(obj:0)
$_17__7_x                                           9 	(obj:0)
$_17__7_y                                          -9 	(obj:0)
$_17__7_z                                          15 	(obj:0)
thing.thing.chamber[0].thingy.r1c_y                   -9 	(obj:0)
$_7__7_x                                            2 	(obj:0)
thing.thing.chamber[2].thingy.r3c_x                    7 	(obj:0)
thing.thing.chamber[2].thingy.r3c_y                   -9 	(obj:0)
thing.thing.chamber[2].thingy.r3c_z                   19 	(obj:0)
thing.thing.chamber[1].thingy.v10_y                   -9 	(obj:0)
$_12__7_x                                          -2 	(obj:0)
$_12__7_y                                          -9 	(obj:0)
$_12__7_z                                          15 	(obj:0)
thing.thing.chamber[1].thingy.v10_z                   24 	(obj:0)
$_7__7_y                                           -9 	(obj:0)
$_123__7_x                                          3 	(obj:0)
$_123__7_y                                         -9 	(obj:0)
$_123__7_z                                         22 	(obj:0)
$_7__7_z                                           23 	(obj:0)
$_122__7_x                                          1 	(obj:0)
$_3__7_x                                            9 	(obj:0)
$_3__7_y                                           -9 	(obj:0)
$_3__7_z                                           22 	(obj:0)
$_122__7_y                                         -9 	(obj:0)
$_122__7_z                                         16 	(obj:0)
thing.bead_trap_ctrl_hole_x                        -3 	(obj:0)
thing.bead_trap_ctrl_hole_y                        -9 	(obj:0)
thing.bead_trap_ctrl_hole_z                        19 	(obj:0)
$_26__7_x                                           4 	(obj:0)
$_120__7_x                                          1 	(obj:0)
$_120__7_y                                         -9 	(obj:0)
$_120__7_z                                         22 	(obj:0)
$_104__7_x                                         -1 	(obj:0)
$_104__7_y                                         -9 	(obj:0)
$_5__7_x                                           -1 	(obj:0)
$_5__7_y                                           -9 	(obj:0)
$_5__7_z                                           17 	(obj:0)
$_104__7_z                                         20 	(obj:0)
$_93__7_x                                           1 	(obj:0)
thing.vertical_ctrl_hole_x                          6 	(obj:0)
thing.vertical_ctrl_hole_y                         -9 	(obj:0)
thing.vertical_ctrl_hole_z                         22 	(obj:0)
$_93__7_y                                          -9 	(obj:0)
$_101__7_x                                          4 	(obj:0)
thing.thing.chamber[1].thingy.v3_x                    4 	(obj:0)
thing.thing.chamber[1].thingy.v3_y                   -9 	(obj:0)
thing.thing.chamber[1].thingy.v3_z                   23 	(obj:0)
$_101__7_y                                         -9 	(obj:0)
$_101__7_z                                         19 	(obj:0)
thing.thing.chamber[2].thingy.v6_x                    5 	(obj:0)
thing.thing.chamber[2].thingy.v6_y                   -9 	(obj:0)
thing.thing.chamber[2].thingy.v6_z                   23 	(obj:0)
$_93__7_z                                          21 	(obj:0)
$_26__7_y                                          -9 	(obj:0)
x276                                                1 	(obj:1)
x278                                                4 	(obj:1)
x284                                                1 	(obj:1)
x294                                                6 	(obj:1)
x296                                                6 	(obj:1)
x297                                                1 	(obj:1)
x299                                                4 	(obj:1)
x300                                                1 	(obj:1)
x302                                                2 	(obj:1)
x315                                                3 	(obj:1)
x317                                                2 	(obj:1)
x320                                                2 	(obj:1)
x332                                                3 	(obj:1)
x341                                                1 	(obj:1)
x344                                                1 	(obj:1)
x350                                                3 	(obj:1)
x362                                                6 	(obj:1)
x363                                                1 	(obj:1)
x365                                                1 	(obj:1)
x368                                                2 	(obj:1)
x371                                                2 	(obj:1)
x372                                                3 	(obj:1)
x375                                                4 	(obj:1)
x378                                                4 	(obj:1)
x384                                                6 	(obj:1)
x390                                                1 	(obj:1)
x393                                                1 	(obj:1)
x395                                                3 	(obj:1)
x396                                                3 	(obj:1)
x398                                                3 	(obj:1)
x399                                                1 	(obj:1)
x401                                                2 	(obj:1)
x404                                                4 	(obj:1)
x407                                                2 	(obj:1)
x413                                                6 	(obj:1)
x420                                                6 	(obj:1)
x422                                                2 	(obj:1)
x435                                                4 	(obj:1)
x437                                                1 	(obj:1)
x438                                                4 	(obj:1)
x440                                                3 	(obj:1)
x443                                                6 	(obj:1)
x449                                                5 	(obj:1)
x452                                                2 	(obj:1)
x455                                                2 	(obj:1)
x477                                                2 	(obj:1)
x482                                                2 	(obj:1)
x489                                                2 	(obj:1)
